c CNF file corresponding to a (partial) station packing problem.
p cnf 4515 171
1 2 3 4 5 6 7 8 9 10 11 12 13 14 0
-1 -2 0
-1 -3 0
-1 -4 0
-1 -5 0
-1 -6 0
-1 -7 0
-1 -8 0
-1 -9 0
-1 -10 0
-1 -11 0
-1 -12 0
-1 -13 0
-1 -14 0
-2 -3 0
-2 -4 0
-2 -5 0
-2 -6 0
-2 -7 0
-2 -8 0
-2 -9 0
-2 -10 0
-2 -11 0
-2 -12 0
-2 -13 0
-2 -14 0
-3 -4 0
-3 -5 0
-3 -6 0
-3 -7 0
-3 -8 0
-3 -9 0
-3 -10 0
-3 -11 0
-3 -12 0
-3 -13 0
-3 -14 0
-4 -5 0
-4 -6 0
-4 -7 0
-4 -8 0
-4 -9 0
-4 -10 0
-4 -11 0
-4 -12 0
-4 -13 0
-4 -14 0
-5 -6 0
-5 -7 0
-5 -8 0
-5 -9 0
-5 -10 0
-5 -11 0
-5 -12 0
-5 -13 0
-5 -14 0
-6 -7 0
-6 -8 0
-6 -9 0
-6 -10 0
-6 -11 0
-6 -12 0
-6 -13 0
-6 -14 0
-7 -8 0
-7 -9 0
-7 -10 0
-7 -11 0
-7 -12 0
-7 -13 0
-7 -14 0
-8 -9 0
-8 -10 0
-8 -11 0
-8 -12 0
-8 -13 0
-8 -14 0
-9 -10 0
-9 -11 0
-9 -12 0
-9 -13 0
-9 -14 0
-10 -11 0
-10 -12 0
-10 -13 0
-10 -14 0
-11 -12 0
-11 -13 0
-11 -14 0
-12 -13 0
-12 -14 0
-13 -14 0
4503 4504 4505 4506 4507 4508 4509 4510 4511 4512 4513 4514 4515 0
-4503 -4504 0
-4503 -4505 0
-4503 -4506 0
-4503 -4507 0
-4503 -4508 0
-4503 -4509 0
-4503 -4510 0
-4503 -4511 0
-4503 -4512 0
-4503 -4513 0
-4503 -4514 0
-4503 -4515 0
-4504 -4505 0
-4504 -4506 0
-4504 -4507 0
-4504 -4508 0
-4504 -4509 0
-4504 -4510 0
-4504 -4511 0
-4504 -4512 0
-4504 -4513 0
-4504 -4514 0
-4504 -4515 0
-4505 -4506 0
-4505 -4507 0
-4505 -4508 0
-4505 -4509 0
-4505 -4510 0
-4505 -4511 0
-4505 -4512 0
-4505 -4513 0
-4505 -4514 0
-4505 -4515 0
-4506 -4507 0
-4506 -4508 0
-4506 -4509 0
-4506 -4510 0
-4506 -4511 0
-4506 -4512 0
-4506 -4513 0
-4506 -4514 0
-4506 -4515 0
-4507 -4508 0
-4507 -4509 0
-4507 -4510 0
-4507 -4511 0
-4507 -4512 0
-4507 -4513 0
-4507 -4514 0
-4507 -4515 0
-4508 -4509 0
-4508 -4510 0
-4508 -4511 0
-4508 -4512 0
-4508 -4513 0
-4508 -4514 0
-4508 -4515 0
-4509 -4510 0
-4509 -4511 0
-4509 -4512 0
-4509 -4513 0
-4509 -4514 0
-4509 -4515 0
-4510 -4511 0
-4510 -4512 0
-4510 -4513 0
-4510 -4514 0
-4510 -4515 0
-4511 -4512 0
-4511 -4513 0
-4511 -4514 0
-4511 -4515 0
-4512 -4513 0
-4512 -4514 0
-4512 -4515 0
-4513 -4514 0
-4513 -4515 0
-4514 -4515 0
